stable/0.95/Alps/examples/Knap/data/easy/input55_1.txt
ITEM 80 90
ITEM 67 77
ITEM 10 20
ITEM 53 63
ITEM 89 99
ITEM 16 26
ITEM 57 67
ITEM 93 103
ITEM 17 27
ITEM 61 71
ITEM 52 62
ITEM 55 65
ITEM 11 21
ITEM 80 90
ITEM 37 47
ITEM 10 20
ITEM 72 82
ITEM 61 71
ITEM 66 76
ITEM 80 90
ITEM 29 39
ITEM 52 62
ITEM 67 77
ITEM 47 57
ITEM 87 97
ITEM 4 14
ITEM 93 103
ITEM 42 52
ITEM 73 83
ITEM 84 94
ITEM 83 93
ITEM 54 64
ITEM 52 62
ITEM 92 102
ITEM 7 17
ITEM 42 52
ITEM 9 19
ITEM 64 74
ITEM 35 45
ITEM 26 36
ITEM 25 35
ITEM 86 96
ITEM 80 90
ITEM 36 46
ITEM 66 76
ITEM 18 28
ITEM 45 55
ITEM 39 49
ITEM 78 88
ITEM 12 22
ITEM 19 29
ITEM 8 18
ITEM 63 73
ITEM 86 96
ITEM 54 64
CAPACITY 847
